37304.87 0
58 57 82 83 53 52 50 51 84 85 86 87 90 92 91 93 94 89 88 77 78 62 79 80 81 59 60 61 63 64 76 75 74 73 72 71 65 66 67 68 70 69 124 125 126 127 128 116 115 114 110 111 112 113 131 132 133 134 135 136 137 130 129 138 139 140 141 151 150 149 152 148 147 146 142 143 144 145 158 157 153 156 159 155 154 160 161 162 168 163 167 166 164 165 201 200 199 198 202 204 203 208 207 206 205 197 196 195 194 209 210 211 212 213 214 215 216 217 223 224 222 221 220 218 219 193 192 191 190 226 225 189 227 228 229 230 231 233 232 234 235 236 237 240 239 238 246 247 245 244 243 242 241 248 249 250 251 252 254 253 255 256 257 300 299 258 259 260 261 262 263 264 265 266 298 297 296 295 294 293 270 269 268 267 271 272 273 274 275 292 291 290 289 288 276 277 278 279 280 281 282 287 286 285 284 283 334 335 336 337 338 339 333 332 331 330 340 341 344 343 342 365 368 369 370 367 366 329 328 327 326 325 324 323 322 321 320 319 317 318 306 305 307 304 303 301 302 508 507 506 509 510 511 513 512 527 528 529 530 531 489 532 533 488 534 487 535 536 537 539 538 540 176 177 178 187 188 186 185 184 183 182 179 181 180 169 171 170 172 175 174 173 108 109 107 542 541 543 544 545 546 547 103 104 105 106 117 123 122 121 120 119 118 95 96 97 98 99 100 102 101 552 553 554 555 556 557 558 559 550 551 548 549 560 561 562 563 564 565 566 567 568 569 570 474 473 475 476 477 478 479 480 481 482 483 484 485 486 490 491 492 493 524 525 526 523 521 522 514 515 516 517 520 519 518 495 494 472 471 470 469 468 467 466 465 464 496 497 463 462 461 452 453 499 500 501 498 502 503 504 505 308 309 310 311 451 312 313 316 314 315 374 373 372 371 396 395 375 376 377 378 379 380 381 390 389 388 391 392 393 394 397 398 399 400 404 405 406 407 408 385 387 386 382 383 384 409 403 402 401 357 358 359 360 361 362 363 364 346 345 347 348 349 350 351 415 416 414 413 352 353 354 355 356 412 411 410 418 417 419 420 421 422 423 424 425 426 427 428 429 431 430 432 433 434 435 437 438 436 445 444 443 442 446 447 448 449 450 441 440 439 454 455 456 457 458 459 460 571 572 573 0 1 2 3 4 5 6 7 8 9 10 11 14 15 16 17 18 19 20 21 13 12 23 22 24 25 26 27 28 29 31 30 32 33 34 35 36 37 38 40 41 39 42 43 44 45 46 47 48 49 54 55 56